p cnf 10 50
7 -9 2 0
10 -6 2 0
-2 10 -7 0
8 -6 9 0
1 -5 7 0
5 -8 -1 0
-3 10 8 0
5 6 8 0
7 10 -9 0
7 -1 8 0
-9 -8 1 0
3 -7 -9 0
3 9 -5 0
-2 -8 9 0
3 10 7 0
7 -10 -6 0
5 9 6 0
4 -5 -2 0
-4 9 -10 0
6 3 -5 0
9 10 -3 0
-4 8 5 0
-9 3 10 0
-2 5 4 0
6 -4 -2 0
7 8 5 0
8 7 6 0
6 3 -9 0
-10 -2 1 0
6 3 9 0
-7 10 3 0
2 3 1 0
7 -3 -10 0
3 1 10 0
5 9 -7 0
5 2 -3 0
9 -7 -6 0
4 1 6 0
-10 -9 -3 0
-3 1 -5 0
7 -5 -6 0
9 1 -5 0
6 -9 7 0
7 -8 4 0
1 9 -10 0
9 1 -3 0
2 9 7 0
5 -10 -8 0
2 -6 4 0
-2 -3 10 0